12 24 9 10
18 17 5 11 20 9 18 11 7 10 3 13 6 18 11 4 2 9 2 2 10 14 15 10 
11.34 3.3 0.34 15.43 12.16 8.08 3.4 5.22 14.59 4.7 1.53 4.55 10.7 3.84 5.81 13.21 12.99 11.93 8.78 12.46 14.21 0.12 14.51 14.71 
4.14 6.95 11.87 15.68 9.93 14.39 10.15 14.68 9.2 7.25 4.26 5.35 10.61 0.53 15.47 9.66 10.31 9.75 14.15 9.93 14.07 9.52 5.08 2.18 
6.4 0.83 13.1 10.17 11.01 15.78 10.19 9.21 15.31 3.53 1.51 12.99 0.87 9.91 0.3 1.65 14.83 4.63 15.46 7.81 13.7 1.99 0.51 1.5 
3.46 1.09 15.26 2.73 7.44 5.77 12.57 13.72 15.42 4.64 0.42 11.94 9.97 2.89 0.2 11.18 6.7 1.52 12.41 13.68 13.4 2.56 9.88 5.5 
14.69 0.85 15.34 7.02 11.01 13.57 15.44 15.73 7.57 3.27 5.43 12.66 1.25 2.32 0.41 4.63 11.91 0.38 14.14 3.73 4.14 9.78 12.26 15.71 
3.07 10.19 9.16 5.44 1.04 14.53 8.51 5.58 3.9 4.38 0.19 9.18 15.27 2.97 3.62 4.08 2.39 7.56 1.13 12.41 13.47 6.68 1.17 11.19 
1.92 9.92 12.27 10.41 1.09 0.09 4.55 1 11.69 13.56 8.54 1.55 7.06 2.09 0.22 5.51 13.75 9.42 7.4 13.38 5.77 1.26 4.88 7.29 
2.23 5.13 5.6 0.4 9.69 1.2 2.15 11.38 5.87 14.02 10.98 4 9.42 10.33 13.37 9.92 1.2 4.7 6.68 10.52 1.63 8.3 1.54 4.5 
11.88 3.23 7.07 8.81 15.9 12.69 6.01 15.08 13.31 1.83 11.47 7.72 4.51 10.13 4.8 3.35 5.52 12.93 11.8 11.06 3.66 15.6 9.71 9.27 
8 8 8 8 8 8 8 8 8 8 8 8 8 8 8 8 8 8 8 8 8 8 8 8 
5.17 0.05 8.05 7.05 0.82 7.53 15.14 9.69 13.39 3.01 15.56 13.95 2.34 14.68 6.88 4.26 9.52 2.19 11.57 9.81 5.17 15.29 11.07 13.99 
14.55 9.31 11.08 6.77 6.99 15.57 13.29 6.55 10.08 2.52 2.38 10.66 11.49 5.97 6.63 11.81 7.16 14.07 14.44 0.81 9.29 3.11 2.97 4.52 
1 1 1 1 1 1 1 1 1 1 1 1 1 1 1 1 1 1 1 1 1 1 1 1 
1 1 1 1 1 1 1 1 1 1 1 1 1 1 1 1 1 1 1 1 1 1 1 1 
1 1 1 1 1 1 1 1 1 1 1 1 1 1 1 1 1 1 1 1 1 1 1 1 
1 1 1 1 1 1 1 1 1 1 1 1 1 1 1 1 1 1 1 1 1 1 1 1 
1 1 1 1 1 1 1 1 1 1 1 1 1 1 1 1 1 1 1 1 1 1 1 1 
1 1 1 1 1 1 1 1 1 1 1 1 1 1 1 1 1 1 1 1 1 1 1 1 
1 1 1 1 1 1 1 1 1 1 1 1 1 1 1 1 1 1 1 1 1 1 1 1 
1 1 1 1 1 1 1 1 1 1 1 1 1 1 1 1 1 1 1 1 1 1 1 1 
1 1 1 1 1 1 1 1 1 1 1 1 1 1 1 1 1 1 1 1 1 1 1 1 
1 1 1 1 1 1 1 1 1 1 1 1 1 1 1 1 1 1 1 1 1 1 1 1 
1 1 1 1 1 1 1 1 1 1 1 1 1 1 1 1 1 1 1 1 1 1 1 1 
1 1 1 1 1 1 1 1 1 1 1 1 1 1 1 1 1 1 1 1 1 1 1 1 
0.01 0.01 0.01 0.01 0.01 0.01 0.01 0.01 0.01 0.01 0.01 0.01 0.01 0.01 0.01 0.01 0.01 0.01 0.01 0.01 0.01 0.01 0.01 0.01 
0.02 0.02 0.02 0.02 0.02 0.02 0.02 0.02 0.02 0.02 0.02 0.02 0.02 0.02 0.02 0.02 0.02 0.02 0.02 0.02 0.02 0.02 0.02 0.02 
0.03 0.03 0.03 0.03 0.03 0.03 0.03 0.03 0.03 0.03 0.03 0.03 0.03 0.03 0.03 0.03 0.03 0.03 0.03 0.03 0.03 0.03 0.03 0.03 
0.04 0.04 0.04 0.04 0.04 0.04 0.04 0.04 0.04 0.04 0.04 0.04 0.04 0.04 0.04 0.04 0.04 0.04 0.04 0.04 0.04 0.04 0.04 0.04 
0.05 0.05 0.05 0.05 0.05 0.05 0.05 0.05 0.05 0.05 0.05 0.05 0.05 0.05 0.05 0.05 0.05 0.05 0.05 0.05 0.05 0.05 0.05 0.05 
0.06 0.06 0.06 0.06 0.06 0.06 0.06 0.06 0.06 0.06 0.06 0.06 0.06 0.06 0.06 0.06 0.06 0.06 0.06 0.06 0.06 0.06 0.06 0.06 
0.07 0.07 0.07 0.07 0.07 0.07 0.07 0.07 0.07 0.07 0.07 0.07 0.07 0.07 0.07 0.07 0.07 0.07 0.07 0.07 0.07 0.07 0.07 0.07 
0.08 0.08 0.08 0.08 0.08 0.08 0.08 0.08 0.08 0.08 0.08 0.08 0.08 0.08 0.08 0.08 0.08 0.08 0.08 0.08 0.08 0.08 0.08 0.08 
0.09 0.09 0.09 0.09 0.09 0.09 0.09 0.09 0.09 0.09 0.09 0.09 0.09 0.09 0.09 0.09 0.09 0.09 0.09 0.09 0.09 0.09 0.09 0.09 
0.1 0.1 0.1 0.1 0.1 0.1 0.1 0.1 0.1 0.1 0.1 0.1 0.1 0.1 0.1 0.1 0.1 0.1 0.1 0.1 0.1 0.1 0.1 0.1 
0.5 0.5 0.5 0.5 0.5 0.5 0.5 0.5 0.5 0.5 0.5 0.5 0.5 0.5 0.5 0.5 0.5 0.5 0.5 0.5 0.5 0.5 0.5 0.5 
1 1 1 1 1 1 1 1 1 1 1 1 1 1 1 1 1 1 1 1 1 1 1 1 
